NAME : portcgen-21-4
COMMENT : portcgen N=21, seed=4
TYPE : TSP
DIMENSION : 21
EDGE_WEIGHT_TYPE : EUC_2D
NODE_COORD_SECTION
1 53838 -329007
2 -102346 16841
3 178762 -495498
4 77607 -186656
5 -175841 -108278
6 -111890 -216528
7 5665 28060
8 166755 -212865
9 152992 -278899
10 100136 194420
11 337886 361855
12 5693 15248
13 -331175 -208760
14 -196627 -55862
15 177704 -100094
16 -189004 -124478
17 256657 -121210
18 -188795 -107045
19 -11253 -252324
20 -325651 190776
21 35919 51883
